nbProcess=2;
nbJobs =3;
nbMchs =2;
Process1=[2,2,2];
pidle=[1,2];
EnergyS=[10,30];
TB=[10,15];
x=
[
[
[1,1,],
[0,0,],
[1,1,],
],
[
[1,1,],
[1,1,],
[1,1,],
],
];
ptime =
[
[
[54,87],
[0,0],
[125,143]
],
[
[63,95],
[120,152],
[135,124]
]
];
power1=
[
[
[3.9,3.8,],
[0,0,],
[3.4,4,],
],
[
[3.9,4.3,],
[4.4,4.5,],
[3.6,4.4,],
],
];
